* ; EXPECT: sat
* (set-logic ALL)
* (set-option :incremental false)
* (declare-fun x () (_ BitVec 10))
* (declare-fun y () (_ BitVec 12))
* (assert (= #b0001000000000000 (bvadd ((_ zero_extend 6) x) ((_ zero_extend 4) y))))
* (check-sat)
* sat
* #variable= 97 #constraint= 60
+1 x81 -1 x65 = 0;
+1 x87 -1 x71 = 0;
+1 x88 -1 x72 = 0;
+1 x89 -1 x73 = 0;
+1 x33 +2 x34 +4 x35 +8 x36 +16 x37 +32 x38 +64 x39 +128 x40 +256 x41 +512 x42 +1024 x43 +2048 x44 +4096 x45 +8192 x46 +16384 x47 +32768 x48 +1 x65 +2 x66 +4 x67 +8 x68 +16 x69 +32 x70 +64 x71 +128 x72 +256 x73 +512 x74 +1024 x75 +2048 x76 +4096 x77 +8192 x78 +16384 x79 +32768 x80 -1 x17 -2 x18 -4 x19 -8 x20 -16 x21 -32 x22 -64 x23 -128 x24 -256 x25 -512 x26 -1024 x27 -2048 x28 -4096 x29 -8192 x30 -16384 x31 -32768 x32 -65536 x97 = 0;
+1 x49 -1 x33 = 0;
+1 x90 -1 x74 = 0;
+1 x91 -1 x75 = 0;
+1 x92 -1 x76 = 0;
+1 x62 = 0;
+1 x15 = 0;
+1 x61 = 0;
+1 x86 -1 x70 = 0;
+1 x13 = 1;
+1 x59 = 0;
+1 x1 = 0;
+1 x3 = 0;
+1 x94 = 0;
+1 x5 = 0;
+1 x95 = 0;
+1 x6 = 0;
+1 x96 = 0;
+1 x7 = 0;
+1 x8 = 0;
+1 x9 = 0;
+1 x1 +2 x2 +4 x3 +8 x4 +16 x5 +32 x6 +64 x7 +128 x8 +256 x9 +512 x10 +1024 x11 +2048 x12 +4096 x13 +8192 x14 +16384 x15 +32768 x16 -1 x17 -2 x18 -4 x19 -8 x20 -16 x21 -32 x22 -64 x23 -128 x24 -256 x25 -512 x26 -1024 x27 -2048 x28 -4096 x29 -8192 x30 -16384 x31 -32768 x32 = 0;
+1 x51 -1 x35 = 0;
+1 x61 -1 x45 = 0;
+1 x10 = 0;
+1 x94 -1 x78 = 0;
+1 x11 = 0;
+1 x12 = 0;
+1 x60 = 0;
+1 x93 -1 x77 = 0;
+1 x82 -1 x66 = 0;
+1 x52 -1 x36 = 0;
+1 x64 = 0;
+1 x16 = 0;
+1 x59 -1 x43 = 0;
+1 x60 -1 x44 = 0;
+1 x50 -1 x34 = 0;
+1 x83 -1 x67 = 0;
+1 x85 -1 x69 = 0;
+1 x62 -1 x46 = 0;
+1 x63 -1 x47 = 0;
+1 x55 -1 x39 = 0;
+1 x56 -1 x40 = 0;
+1 x2 = 0;
+1 x57 -1 x41 = 0;
+1 x64 -1 x48 = 0;
+1 x53 -1 x37 = 0;
+1 x93 = 0;
+1 x4 = 0;
+1 x58 -1 x42 = 0;
+1 x54 -1 x38 = 0;
+1 x84 -1 x68 = 0;
+1 x14 = 0;
+1 x96 -1 x80 = 0;
+1 x95 -1 x79 = 0;
+1 x63 = 0;
